73
36
0
38
37
61
59
82
953
136
26
44
40
98
64
34
68
42
58
26
0
0
146
0
162
0
21
40
0
561
113
566
0
49
30
29
206
38
0
129
66
64
0
68
63
27
26
41
170
40
90
60
209
81
62
37
270
123
153
85
57
159
94
116
78
0
42
544
0
79
79
388
34
106
0
37
26
31
36
119
96
79
114
73
30
48
109
62
57
97
49
245
42
53
0
45
39
65
26
75
